set VV := 0 1 2 3 4 5 6 7 8 9 10 11 12 13 14 15 16 17 18 19 20 21 22 23 ;
set VS := 0 1 2 3 4 5 6 7 8 9 10 11 12 13 14 15 16 17 18 19 20 21 22 23 24 25 26 27 28 29 30 31 32 33 34 35 36 37 38 39 40 41 42 43 44 45 46 47 48 49 50 51 ;
param cv := 
0 20
1 25
2 13
3 22
4 14
5 14
6 15
7 12
8 22
9 17
10 10
11 16
12 17
13 14
14 12
15 12
16 16
17 24
18 23
19 21
20 20
21 11
22 20
23 11
;
param cs := 
0 25
1 22
2 26
3 33
4 32
5 38
6 35
7 24
8 34
9 30
10 33
11 28
12 30
13 28
14 40
15 34
16 20
17 34
18 29
19 35
20 31
21 21
22 28
23 33
24 24
25 34
26 39
27 27
28 35
29 24
30 40
31 21
32 37
33 39
34 40
35 20
36 35
37 32
38 40
39 30
40 30
41 36
42 24
43 39
44 36
45 21
46 20
47 38
48 38
49 38
50 25
51 39
;
param bv:	 0 1 2 3 4 5 6 7 8 9 10 11 12 13 14 15 16 17 18 19 20 21 22 23 := 
		0 0 0 0 0 0 0 0 0 0 21 0 0 0 0 19 0 0 0 0 0 0 0 0 0 
		1 0 0 0 0 0 0 0 18 0 24 0 0 0 0 0 0 0 0 0 0 0 0 0 0 
		2 0 0 0 0 0 0 0 0 0 0 0 0 0 0 0 0 10 0 14 0 0 0 0 0 
		3 0 0 0 0 0 0 0 0 0 0 13 0 0 0 0 0 0 10 0 0 0 0 0 0 
		4 0 0 0 0 0 0 0 24 24 0 0 0 0 0 18 0 0 0 24 0 0 0 0 12 
		5 0 0 0 0 0 0 0 22 11 0 11 0 0 0 0 23 0 0 0 0 0 0 0 0 
		6 0 0 0 0 0 0 0 0 0 0 0 0 0 0 0 0 0 17 0 0 0 0 0 0 
		7 0 0 0 0 0 0 0 0 0 24 0 10 0 0 0 0 12 0 0 15 0 0 0 0 
		8 0 0 0 0 0 0 0 0 0 0 0 0 0 0 0 0 0 0 0 0 0 0 0 0 
		9 0 0 0 0 0 0 0 0 0 0 0 0 12 0 0 23 0 0 0 0 0 0 0 0 
		10 0 0 0 0 0 0 0 0 0 0 0 0 0 0 0 0 0 0 0 0 0 0 0 0 
		11 0 0 0 0 0 0 0 0 0 0 0 0 13 0 0 0 0 0 12 0 19 0 0 0 
		12 0 0 0 0 0 0 0 0 0 0 0 0 0 0 0 0 0 0 0 10 0 0 0 0 
		13 0 0 0 0 0 0 0 0 0 0 0 0 0 0 0 0 0 19 0 14 0 22 0 0 
		14 0 0 0 0 0 0 0 0 0 0 0 0 0 0 0 0 24 0 0 0 0 11 0 0 
		15 0 0 0 0 0 0 0 0 0 0 0 0 0 0 0 0 0 0 0 0 0 0 14 0 
		16 0 0 0 0 0 0 0 0 0 0 0 0 0 0 0 0 0 0 16 0 0 0 0 0 
		17 0 0 0 0 0 0 0 0 0 0 0 0 0 0 0 0 0 0 0 0 0 0 0 0 
		18 0 0 0 0 0 0 0 0 0 0 0 0 0 0 0 0 0 0 0 0 0 0 19 0 
		19 0 0 0 0 0 0 0 0 0 0 0 0 0 0 0 0 0 0 0 0 0 0 0 0 
		20 0 0 0 0 0 0 0 0 0 0 0 0 0 0 0 0 0 0 0 0 0 0 0 16 
		21 0 0 0 0 0 0 0 0 0 0 0 0 0 0 0 0 0 0 0 0 0 0 0 0 
		22 0 0 0 0 0 0 0 0 0 0 0 0 0 0 0 0 0 0 0 0 0 0 0 0 
		23 0 0 0 0 0 0 0 0 0 0 0 0 0 0 0 0 0 0 0 0 0 0 0 0 
;
param bs:	 0 1 2 3 4 5 6 7 8 9 10 11 12 13 14 15 16 17 18 19 20 21 22 23 24 25 26 27 28 29 30 31 32 33 34 35 36 37 38 39 40 41 42 43 44 45 46 47 48 49 50 51 := 
		0 0 0 0 0 0 0 0 0 34 0 0 38 0 0 28 0 0 0 0 0 0 0 0 0 30 0 0 0 0 0 0 0 0 0 0 0 0 0 0 0 0 0 0 0 0 0 0 0 0 0 0 0 
		1 0 0 0 0 0 0 0 27 0 37 0 0 0 0 0 0 0 0 0 33 0 0 0 0 0 0 0 0 0 0 0 0 0 0 0 0 0 0 0 0 0 0 0 20 0 20 0 0 0 0 0 0 
		2 0 0 0 0 0 39 26 0 0 0 0 0 0 20 0 0 38 0 0 0 0 0 0 0 0 0 0 0 0 0 0 0 0 0 0 0 0 0 0 0 0 0 32 0 0 0 0 0 36 0 0 0 
		3 0 0 0 0 0 0 27 0 0 0 23 0 0 28 0 0 0 0 0 0 0 0 0 0 0 0 0 0 0 0 0 0 0 0 0 0 0 0 0 0 0 0 31 0 0 0 0 0 0 0 0 0 
		4 0 0 0 0 0 22 32 0 0 0 0 0 0 0 0 0 0 0 0 0 0 0 0 0 24 0 0 0 0 0 31 0 0 0 0 0 0 21 0 0 0 0 0 0 0 0 0 0 0 0 0 0 
		5 0 0 39 0 22 0 35 0 0 0 34 0 22 0 0 0 0 0 0 27 0 0 0 0 0 0 0 38 0 0 0 0 0 0 0 0 0 0 24 0 24 0 0 0 0 0 30 0 30 0 0 0 
		6 0 0 26 27 32 35 0 0 0 0 0 0 0 0 39 0 39 0 0 35 40 0 0 0 0 0 0 0 0 0 0 0 0 0 33 34 0 0 0 0 0 0 20 0 0 0 0 0 0 0 36 23 
		7 0 27 0 0 0 0 0 0 0 0 0 0 0 0 0 21 0 0 0 0 0 0 0 22 0 0 0 30 0 36 0 35 35 0 0 0 0 0 0 0 0 0 37 0 0 0 40 0 0 0 0 0 
		8 34 0 0 0 0 0 0 0 0 32 0 0 35 0 0 37 36 0 0 0 0 35 0 0 0 0 0 0 0 0 0 39 0 0 0 20 0 37 0 0 0 0 0 0 21 0 31 0 0 0 0 0 
		9 0 37 0 0 0 0 0 0 32 0 0 0 0 0 33 0 0 0 35 0 0 0 0 0 0 0 0 0 0 0 0 0 0 0 0 0 0 0 0 0 0 0 0 29 0 0 0 0 0 0 0 0 
		10 0 0 0 23 0 34 0 0 0 0 0 0 0 0 0 0 34 0 37 0 0 0 0 0 0 0 0 23 0 0 0 22 0 0 0 0 0 0 0 0 0 0 22 0 29 0 0 0 0 0 31 23 
		11 38 0 0 0 0 0 0 0 0 0 0 0 0 0 0 28 0 0 0 0 0 0 0 0 0 0 0 0 27 0 0 0 0 0 0 0 0 30 0 0 0 38 0 0 0 0 0 21 0 0 0 0 
		12 0 0 0 0 0 22 0 0 35 0 0 0 0 0 0 0 0 0 0 0 0 0 0 0 0 0 0 0 0 0 0 0 0 34 0 0 0 0 0 0 0 0 0 0 0 0 0 0 0 0 0 0 
		13 0 0 20 28 0 0 0 0 0 0 0 0 0 0 0 0 0 0 0 0 0 0 0 0 0 0 0 32 0 0 0 0 0 0 0 0 0 0 0 0 23 0 0 0 33 0 0 0 0 0 0 0 
		14 28 0 0 0 0 0 39 0 0 33 0 0 0 0 0 0 0 0 0 38 34 0 0 0 0 0 22 0 0 0 0 0 0 0 0 0 0 21 35 0 0 0 0 0 0 0 0 0 0 0 0 0 
		15 0 0 0 0 0 0 0 21 37 0 0 28 0 0 0 0 0 0 0 0 0 0 0 20 0 37 0 0 0 0 0 0 0 0 0 0 0 33 22 0 0 0 32 0 0 0 0 0 0 30 0 0 
		16 0 0 38 0 0 0 39 0 36 0 34 0 0 0 0 0 0 0 0 0 0 0 37 0 0 0 0 20 0 0 38 0 0 0 0 0 0 0 0 0 0 22 28 0 0 0 26 0 0 0 39 0 
		17 0 0 0 0 0 0 0 0 0 0 0 0 0 0 0 0 0 0 23 0 31 0 0 0 0 0 0 0 0 0 0 0 0 0 0 0 0 0 0 0 0 0 0 0 0 0 0 0 0 0 37 0 
		18 0 0 0 0 0 0 0 0 0 35 37 0 0 0 0 0 0 23 0 0 35 0 0 0 0 0 0 0 0 0 0 0 0 0 0 0 0 0 0 0 0 0 0 0 0 0 0 0 0 37 38 23 
		19 0 33 0 0 0 27 35 0 0 0 0 0 0 0 38 0 0 0 0 0 0 0 0 0 0 0 0 20 0 0 0 0 26 31 0 0 0 0 0 0 0 0 34 0 0 0 0 0 0 0 0 0 
		20 0 0 0 0 0 0 40 0 0 0 0 0 0 0 34 0 0 31 35 0 0 0 0 0 40 0 0 0 0 0 0 0 22 0 21 0 0 0 30 29 26 0 0 0 0 36 0 0 0 0 0 0 
		21 0 0 0 0 0 0 0 0 35 0 0 0 0 0 0 0 0 0 0 0 0 0 0 0 0 0 0 0 0 0 0 0 0 0 39 0 0 0 40 0 0 0 0 0 0 0 0 0 0 0 0 0 
		22 0 0 0 0 0 0 0 0 0 0 0 0 0 0 0 0 37 0 0 0 0 0 0 0 0 0 0 0 0 0 0 0 0 0 0 0 0 0 0 0 0 0 0 0 0 0 0 0 0 0 0 0 
		23 0 0 0 0 0 0 0 22 0 0 0 0 0 0 0 20 0 0 0 0 0 0 0 0 0 0 0 0 0 0 0 0 0 0 0 0 0 0 0 0 0 0 0 0 0 0 25 0 29 33 0 0 
		24 30 0 0 0 24 0 0 0 0 0 0 0 0 0 0 0 0 0 0 0 40 0 0 0 0 0 0 0 0 0 0 0 0 0 0 0 40 0 0 0 0 0 0 0 0 0 0 0 0 0 0 0 
		25 0 0 0 0 0 0 0 0 0 0 0 0 0 0 0 37 0 0 0 0 0 0 0 0 0 0 0 0 0 0 35 0 0 20 0 0 0 0 0 0 0 0 0 0 0 0 0 0 0 31 0 0 
		26 0 0 0 0 0 0 0 0 0 0 0 0 0 0 22 0 0 0 0 0 0 0 0 0 0 0 0 0 0 0 0 0 0 0 31 0 0 0 0 0 0 0 0 0 0 28 0 0 0 0 0 0 
		27 0 0 0 0 0 38 0 30 0 0 23 0 0 32 0 0 20 0 0 20 0 0 0 0 0 0 0 0 0 0 0 0 37 0 0 0 0 0 0 0 0 0 0 34 0 0 0 0 31 0 0 22 
		28 0 0 0 0 0 0 0 0 0 0 0 27 0 0 0 0 0 0 0 0 0 0 0 0 0 0 0 0 0 0 40 0 0 0 0 0 0 0 0 0 0 0 0 0 0 0 0 0 0 0 0 0 
		29 0 0 0 0 0 0 0 36 0 0 0 0 0 0 0 0 0 0 0 0 0 0 0 0 0 0 0 0 0 0 0 0 0 31 0 0 0 37 0 0 0 0 0 0 0 0 0 0 0 0 0 0 
		30 0 0 0 0 31 0 0 0 0 0 0 0 0 0 0 0 38 0 0 0 0 0 0 0 0 35 0 0 40 0 0 0 0 0 0 0 0 0 32 0 0 0 0 0 0 0 0 0 0 0 0 0 
		31 0 0 0 0 0 0 0 35 39 0 22 0 0 0 0 0 0 0 0 0 0 0 0 0 0 0 0 0 0 0 0 0 39 0 0 0 0 0 0 0 0 0 0 0 0 0 0 0 29 0 0 0 
		32 0 0 0 0 0 0 0 35 0 0 0 0 0 0 0 0 0 0 0 26 22 0 0 0 0 0 0 37 0 0 0 39 0 0 0 28 0 0 0 0 0 0 0 34 0 26 0 0 0 0 0 0 
		33 0 0 0 0 0 0 0 0 0 0 0 0 34 0 0 0 0 0 0 31 0 0 0 0 0 20 0 0 0 31 0 0 0 0 0 0 0 0 0 0 0 0 0 36 0 0 0 0 24 21 0 0 
		34 0 0 0 0 0 0 33 0 0 0 0 0 0 0 0 0 0 0 0 0 21 39 0 0 0 0 31 0 0 0 0 0 0 0 0 0 0 0 0 0 0 0 0 0 0 0 0 0 0 31 0 0 
		35 0 0 0 0 0 0 34 0 20 0 0 0 0 0 0 0 0 0 0 0 0 0 0 0 0 0 0 0 0 0 0 0 28 0 0 0 0 29 35 0 0 0 33 0 0 0 0 0 0 0 0 0 
		36 0 0 0 0 0 0 0 0 0 0 0 0 0 0 0 0 0 0 0 0 0 0 0 0 40 0 0 0 0 0 0 0 0 0 0 0 0 0 0 0 0 0 27 0 0 0 0 0 0 0 0 0 
		37 0 0 0 0 21 0 0 0 37 0 0 30 0 0 21 33 0 0 0 0 0 0 0 0 0 0 0 0 0 37 0 0 0 0 0 29 0 0 32 0 0 0 0 0 0 0 0 0 29 0 37 0 
		38 0 0 0 0 0 24 0 0 0 0 0 0 0 0 35 22 0 0 0 0 30 40 0 0 0 0 0 0 0 0 32 0 0 0 0 35 0 32 0 0 0 0 0 0 0 0 0 0 0 0 0 0 
		39 0 0 0 0 0 0 0 0 0 0 0 0 0 0 0 0 0 0 0 0 29 0 0 0 0 0 0 0 0 0 0 0 0 0 0 0 0 0 0 0 0 0 0 0 0 0 0 0 0 0 0 0 
		40 0 0 0 0 0 24 0 0 0 0 0 0 0 23 0 0 0 0 0 0 26 0 0 0 0 0 0 0 0 0 0 0 0 0 0 0 0 0 0 0 0 0 20 0 24 0 0 0 0 0 0 0 
		41 0 0 0 0 0 0 0 0 0 0 0 38 0 0 0 0 22 0 0 0 0 0 0 0 0 0 0 0 0 0 0 0 0 0 0 0 0 0 0 0 0 0 0 0 0 0 0 0 0 0 0 0 
		42 0 0 32 31 0 0 20 37 0 0 22 0 0 0 0 32 28 0 0 34 0 0 0 0 0 0 0 0 0 0 0 0 0 0 0 33 27 0 0 0 20 0 0 0 0 21 0 0 0 0 0 0 
		43 0 20 0 0 0 0 0 0 0 29 0 0 0 0 0 0 0 0 0 0 0 0 0 0 0 0 0 34 0 0 0 0 34 36 0 0 0 0 0 0 0 0 0 0 0 0 0 0 0 0 0 0 
		44 0 0 0 0 0 0 0 0 21 0 29 0 0 33 0 0 0 0 0 0 0 0 0 0 0 0 0 0 0 0 0 0 0 0 0 0 0 0 0 0 24 0 0 0 0 0 0 20 0 0 0 0 
		45 0 20 0 0 0 0 0 0 0 0 0 0 0 0 0 0 0 0 0 0 36 0 0 0 0 0 28 0 0 0 0 0 26 0 0 0 0 0 0 0 0 0 21 0 0 0 0 0 0 0 26 0 
		46 0 0 0 0 0 30 0 40 31 0 0 0 0 0 0 0 26 0 0 0 0 0 0 25 0 0 0 0 0 0 0 0 0 0 0 0 0 0 0 0 0 0 0 0 0 0 0 0 0 0 0 0 
		47 0 0 0 0 0 0 0 0 0 0 0 21 0 0 0 0 0 0 0 0 0 0 0 0 0 0 0 0 0 0 0 0 0 0 0 0 0 0 0 0 0 0 0 0 20 0 0 0 0 0 35 0 
		48 0 0 36 0 0 30 0 0 0 0 0 0 0 0 0 0 0 0 0 0 0 0 0 29 0 0 0 31 0 0 0 29 0 24 0 0 0 29 0 0 0 0 0 0 0 0 0 0 0 0 0 0 
		49 0 0 0 0 0 0 0 0 0 0 0 0 0 0 0 30 0 0 37 0 0 0 0 33 0 31 0 0 0 0 0 0 0 21 31 0 0 0 0 0 0 0 0 0 0 0 0 0 0 0 0 0 
		50 0 0 0 0 0 0 36 0 0 0 31 0 0 0 0 0 39 37 38 0 0 0 0 0 0 0 0 0 0 0 0 0 0 0 0 0 0 37 0 0 0 0 0 0 0 26 0 35 0 0 0 0 
		51 0 0 0 0 0 0 23 0 0 0 23 0 0 0 0 0 0 0 23 0 0 0 0 0 0 0 0 22 0 0 0 0 0 0 0 0 0 0 0 0 0 0 0 0 0 0 0 0 0 0 0 0 
;
